p wcnf 4000 400 1
1 1 0
1 2 0
1 3 0
1 4 0
1 5 0
1 6 0
1 7 0
1 8 0
1 9 0
1 10 0
1 11 0
1 12 0
1 13 0
1 14 0
1 15 0
1 1 1 1 1 1 1 1 1 1 1 1 1 1 1 0
1 1 1 1 1 1 1 1 1 1 1 1 1 2 2 0
1 2 2 2 2 2 2 2 2 2 2 2 2 2 2 0
1 2 2 2 2 2 2 2 2 2 2 2 2 2 2 0
1 2 2 2 2 2 2 2 3 3 3 3 3 3 3 0
1 3 3 3 3 3 3 3 3 3 3 3 3 3 3 0
1 3 3 3 3 3 3 3 3 3 3 3 3 3 3 0
1 3 4 4 4 4 4 4 4 4 4 4 4 4 4 0
1 4 4 4 4 4 4 4 4 4 4 4 4 4 4 0
1 4 5 5 5 5 5 5 5 5 5 5 5 5 5 0
1 5 5 5 5 5 5 5 5 5 5 5 5 5 5 0
1 5 5 5 5 5 5 6 6 6 6 6 6 6 6 0
1 6 6 6 6 6 6 6 6 6 6 6 6 6 6 0
1 6 6 6 6 6 6 6 6 6 6 6 6 6 6 0
1 6 6 6 6 6 6 6 6 6 6 6 6 7 7 0
1 7 7 7 7 7 7 7 7 7 7 7 7 7 7 0
1 7 7 7 7 7 7 7 7 7 7 7 7 7 7 0
1 7 7 7 7 7 7 7 7 7 7 8 8 8 8 0
1 8 8 8 8 8 8 8 8 8 8 8 8 8 8 0
1 8 8 8 8 8 8 8 8 8 8 8 8 8 8 0
1 8 9 9 9 9 9 9 9 9 9 9 9 9 9 0
1 9 9 9 9 9 9 9 9 9 9 9 9 9 9 0
1 9 9 9 9 9 9 9 9 9 9 9 9 10 10 0
1 10 10 10 10 10 10 10 10 10 10 10 10 10 10 0
1 10 10 10 10 10 10 10 10 10 10 10 10 10 10 0
1 10 10 10 10 11 11 11 11 11 11 11 11 11 11 0
1 11 11 11 11 11 11 11 11 11 11 11 11 11 11 0
1 11 11 11 11 11 11 11 11 11 11 11 11 11 11 0
1 11 11 11 12 12 12 12 12 12 12 12 12 12 12 0
1 12 12 12 12 12 12 12 12 12 12 12 12 12 12 0
1 12 12 12 12 12 12 12 12 12 12 12 12 12 12 0
1 12 12 12 12 12 12 12 12 12 12 13 13 13 13 0
1 13 13 13 13 13 13 13 13 13 13 13 13 13 13 0
1 13 13 13 13 13 13 13 13 13 13 13 13 13 13 0
1 13 13 13 13 13 13 13 13 14 14 14 14 14 14 0
1 14 14 14 14 14 14 14 14 14 14 14 14 14 14 0
1 14 14 14 14 14 14 14 14 14 14 14 14 14 14 0
1 14 14 14 14 14 14 14 14 14 14 14 14 14 14 0
1 14 15 15 15 15 15 15 15 15 15 15 15 15 15 0
1 15 15 15 15 15 15 15 15 15 15 15 15 15 16 0
1 16 16 16 16 16 16 16 16 16 16 16 16 16 16 0
1 16 16 16 16 16 16 16 16 16 16 16 16 16 16 0
1 16 16 16 16 17 17 17 17 17 17 17 17 17 17 0
1 17 17 17 17 17 17 17 17 17 17 17 17 17 17 0
1 17 17 17 17 17 17 17 17 17 17 17 17 17 17 0
1 17 17 17 17 17 18 18 18 18 18 18 18 18 18 0
1 18 18 18 18 18 18 18 18 18 18 18 18 18 18 0
1 18 18 18 18 18 18 18 18 18 18 18 18 18 19 0
1 19 19 19 19 19 19 19 19 19 19 19 19 19 19 0
1 19 19 19 19 19 19 19 19 19 19 19 19 19 19 0
1 19 19 19 20 20 20 20 20 20 20 20 20 20 20 0
1 20 20 20 20 20 20 20 20 20 20 20 20 20 20 0
1 20 20 20 20 20 20 20 20 20 20 20 20 20 21 0
1 21 21 21 21 21 21 21 21 21 21 21 21 21 21 0
1 21 21 21 21 21 21 21 21 21 21 21 21 21 21 0
1 21 21 21 21 21 21 21 21 22 22 22 22 22 22 0
1 22 22 22 22 22 22 22 22 22 22 22 22 22 22 0
1 22 22 22 22 22 22 22 22 22 22 22 22 22 22 0
1 22 22 22 23 23 23 23 23 23 23 23 23 23 23 0
1 23 23 23 23 23 23 23 23 23 23 23 23 23 23 0
1 23 23 23 23 23 23 23 23 23 23 23 23 23 23 0
1 23 23 23 23 24 24 24 24 24 24 24 24 24 24 0
1 24 24 24 24 24 24 24 24 24 24 24 24 24 24 0
1 24 24 24 24 24 24 24 24 24 24 24 24 24 24 0
1 24 24 24 24 24 25 25 25 25 25 25 25 25 25 0
1 25 25 25 25 25 25 25 25 25 25 25 25 25 25 0
1 25 25 25 25 25 25 25 25 25 25 25 25 25 25 0
1 25 25 25 25 25 26 26 26 26 26 26 26 26 26 0
1 26 26 26 26 26 26 26 26 26 26 26 26 26 26 0
1 26 26 26 26 26 26 26 26 26 26 26 26 26 26 0
1 26 26 26 26 26 26 26 27 27 27 27 27 27 27 0
1 27 27 27 27 27 27 27 27 27 27 27 27 27 27 0
1 27 27 27 27 27 27 27 27 27 27 27 27 27 27 0
1 27 27 27 27 28 28 28 28 28 28 28 28 28 28 0
1 28 28 28 28 28 28 28 28 28 28 28 28 28 28 0
1 28 28 28 28 28 28 28 28 28 28 28 28 28 28 0
1 28 28 28 28 28 28 29 29 29 29 29 29 29 29 0
1 29 29 29 29 29 29 29 29 29 29 29 29 29 29 0
1 29 29 29 29 29 29 29 29 29 29 29 29 29 29 0
1 29 29 29 29 30 30 30 30 30 30 30 30 30 30 0
1 30 30 30 30 30 30 30 30 30 30 30 30 30 30 0
1 31 31 31 31 31 31 31 31 31 31 31 31 31 31 0
1 31 31 31 31 31 31 31 31 31 31 31 31 31 31 0
1 31 31 31 31 31 31 31 31 31 31 31 31 31 32 0
1 32 32 32 32 32 32 32 32 32 32 32 32 32 32 0
1 32 32 32 32 32 32 32 32 32 32 32 32 32 32 0
1 32 32 32 32 32 32 32 32 32 32 32 32 32 32 0
1 32 33 33 33 33 33 33 33 33 33 33 33 33 33 0
1 33 33 33 33 33 33 33 33 33 33 33 33 33 33 0
1 33 34 34 34 34 34 34 34 34 34 34 34 34 34 0
1 34 34 34 34 34 34 34 34 34 34 34 34 34 34 0
1 34 34 34 34 34 35 35 35 35 35 35 35 35 35 0
1 35 35 35 35 35 35 35 35 35 35 35 35 35 35 0
1 35 35 35 35 35 35 36 36 36 36 36 36 36 36 0
1 36 36 36 36 36 36 36 36 36 36 36 36 36 36 0
1 36 36 36 36 36 36 36 36 36 36 36 36 36 36 0
1 36 37 37 37 37 37 37 37 37 37 37 37 37 37 0
1 37 37 37 37 37 37 37 37 37 37 37 37 37 37 0
1 38 38 38 38 38 38 38 38 38 38 38 38 38 38 0
1 38 38 38 38 38 38 38 38 38 38 38 38 38 38 0
1 38 38 38 38 38 39 39 39 39 39 39 39 39 39 0
1 39 39 39 39 39 39 39 39 39 39 39 39 39 39 0
1 39 39 39 39 39 39 39 39 39 39 39 39 39 39 0
1 39 40 40 40 40 40 40 40 40 40 40 40 40 40 0
1 40 40 40 40 40 40 40 40 40 40 40 40 40 40 0
1 41 41 41 41 41 41 41 41 41 41 41 41 41 41 0
1 41 41 41 41 41 41 41 41 41 41 41 41 41 41 0
1 41 41 42 42 42 42 42 42 42 42 42 42 42 42 0
1 42 42 42 42 42 42 42 42 42 42 42 42 42 42 0
1 42 42 42 42 42 42 42 42 42 42 42 42 42 42 0
1 42 43 43 43 43 43 43 43 43 43 43 43 43 43 0
1 43 43 43 43 43 43 43 43 43 43 43 43 43 43 0
1 43 44 44 44 44 44 44 44 44 44 44 44 44 44 0
1 44 44 44 44 44 44 44 44 44 44 44 44 44 44 0
1 44 44 44 44 44 44 44 44 45 45 45 45 45 45 0
1 45 45 45 45 45 45 45 45 45 45 45 45 45 45 0
1 45 45 45 45 45 45 45 45 45 45 45 45 45 45 0
1 45 45 45 45 45 45 45 45 46 46 46 46 46 46 0
1 46 46 46 46 46 46 46 46 46 46 46 46 46 46 0
1 46 46 46 46 46 46 46 46 46 46 46 46 46 46 0
1 47 47 47 47 47 47 47 47 47 47 47 47 47 47 0
1 47 47 47 47 47 47 47 47 47 47 47 47 47 47 0
1 47 47 47 47 47 47 47 47 47 47 47 47 47 47 0
1 47 48 48 48 48 48 48 48 48 48 48 48 48 48 0
1 48 48 48 48 48 48 48 48 48 48 48 48 48 48 0
1 48 48 48 48 48 48 48 48 48 48 48 48 48 48 0
1 48 48 48 48 48 48 48 49 49 49 49 49 49 49 0
1 49 49 49 49 49 49 49 49 49 49 49 49 49 49 0
1 49 49 49 49 49 49 49 49 49 49 49 49 49 49 0
1 49 50 50 50 50 50 50 50 50 50 50 50 50 50 0
1 50 50 50 50 50 50 50 50 50 50 50 50 50 50 0
1 50 50 50 50 50 50 50 51 51 51 51 51 51 51 0
1 51 51 51 51 51 51 51 51 51 51 51 51 51 51 0
1 51 51 51 51 51 51 51 51 51 51 51 51 51 51 0
1 51 51 51 51 51 51 51 51 51 51 52 52 52 52 0
1 52 52 52 52 52 52 52 52 52 52 52 52 52 52 0
1 52 52 52 52 52 52 52 52 52 52 52 52 52 52 0
1 52 52 52 52 52 53 53 53 53 53 53 53 53 53 0
1 53 53 53 53 53 53 53 53 53 53 53 53 53 53 0
1 53 53 53 53 53 53 53 53 53 53 53 53 53 53 0
1 53 53 53 53 53 53 53 53 54 54 54 54 54 54 0
1 54 54 54 54 54 54 54 54 54 54 54 54 54 54 0
1 54 54 54 54 54 54 54 54 54 54 54 54 54 54 0
1 54 54 54 54 54 54 54 55 55 55 55 55 55 55 0
1 55 55 55 55 55 55 55 55 55 55 55 55 55 55 0
1 55 55 55 55 55 55 55 55 55 55 55 55 55 55 0
1 55 55 55 55 55 55 56 56 56 56 56 56 56 56 0
1 56 56 56 56 56 56 56 56 56 56 56 56 56 56 0
1 56 56 56 56 56 56 56 56 56 56 56 56 56 56 0
1 56 56 56 56 56 56 56 56 56 56 56 56 56 56 0
1 57 57 57 57 57 57 57 57 57 57 57 57 57 57 0
1 57 57 57 57 57 57 57 57 57 57 57 57 57 57 0
1 57 57 57 57 57 58 58 58 58 58 58 58 58 58 0
1 58 58 58 58 58 58 58 58 58 58 58 58 58 58 0
1 58 58 58 58 58 58 58 58 58 58 58 58 58 58 0
1 58 58 58 58 58 59 59 59 59 59 59 59 59 59 0
1 59 59 59 59 59 59 59 59 59 59 59 59 59 59 0
1 59 59 59 59 59 60 60 60 60 60 60 60 60 60 0
1 60 60 60 60 60 60 60 60 60 60 60 60 60 60 0
1 60 60 60 60 60 60 60 60 60 60 60 60 60 60 0
1 60 60 60 61 61 61 61 61 61 61 61 61 61 61 0
1 61 61 61 61 61 61 61 61 61 61 61 61 61 61 0
1 61 61 61 61 61 61 61 61 61 61 61 61 61 61 0
1 61 61 62 62 62 62 62 62 62 62 62 62 62 62 0
1 62 62 62 62 62 62 62 62 62 62 62 62 62 62 0
1 62 62 62 62 62 62 62 62 62 62 62 62 62 62 0
1 63 63 63 63 63 63 63 63 63 63 63 63 63 63 0
1 63 63 63 63 63 63 63 63 63 63 63 63 63 63 0
1 63 63 63 63 63 63 63 63 64 64 64 64 64 64 0
1 64 64 64 64 64 64 64 64 64 64 64 64 64 64 0
1 64 64 65 65 65 65 65 65 65 65 65 65 65 65 0
1 65 65 65 65 65 65 65 65 65 65 65 65 65 65 0
1 65 65 65 65 65 65 65 65 65 65 65 66 66 66 0
1 66 66 66 66 66 66 66 66 66 66 66 66 66 66 0
1 66 66 66 66 66 66 66 66 66 66 66 66 66 66 0
1 66 66 66 66 66 66 66 66 66 66 66 66 66 67 0
1 67 67 67 67 67 67 67 67 67 67 67 67 67 67 0
1 67 67 67 67 67 67 67 67 67 67 67 67 67 67 0
1 67 67 67 67 67 67 67 67 67 67 67 67 67 67 0
1 68 68 68 68 68 68 68 68 68 68 68 68 68 68 0
1 68 68 68 68 68 68 68 68 68 68 68 68 68 68 0
1 68 68 68 68 69 69 69 69 69 69 69 69 69 69 0
1 69 69 69 69 69 69 69 69 69 69 69 69 69 69 0
1 69 69 69 69 69 69 69 69 69 69 70 70 70 70 0
1 70 70 70 70 70 70 70 70 70 70 70 70 70 70 0
1 70 70 70 70 70 70 70 70 70 70 70 70 70 70 0
1 70 70 70 70 70 70 70 70 70 71 71 71 71 71 0
1 71 71 71 71 71 71 71 71 71 71 71 71 71 71 0
1 71 71 71 71 71 71 71 71 71 71 71 71 71 71 0
1 72 72 72 72 72 72 72 72 72 72 72 72 72 72 0
1 72 72 72 72 72 72 72 72 72 72 72 72 72 72 0
1 72 72 72 72 72 72 72 72 72 72 72 72 72 72 0
1 72 72 72 72 73 73 73 73 73 73 73 73 73 73 0
1 73 73 73 73 73 73 73 73 73 73 73 73 73 73 0
1 73 73 73 73 73 73 73 73 73 73 73 73 73 74 0
1 74 74 74 74 74 74 74 74 74 74 74 74 74 74 0
1 74 74 74 74 74 74 74 74 74 74 74 74 74 74 0
1 74 74 74 74 74 74 74 74 74 74 74 75 75 75 0
1 75 75 75 75 75 75 75 75 75 75 75 75 75 75 0
1 75 75 75 75 75 75 75 75 75 75 75 75 75 75 0
1 75 75 75 75 75 76 76 76 76 76 76 76 76 76 0
1 76 76 76 76 76 76 76 76 76 76 76 76 76 76 0
1 76 76 76 76 76 76 76 76 76 76 76 76 76 76 0
1 77 77 77 77 77 77 77 77 77 77 77 77 77 77 0
1 77 77 77 77 77 77 77 77 77 78 78 78 78 78 0
1 78 78 78 78 78 78 78 78 78 78 78 78 78 78 0
1 78 78 78 78 78 78 78 78 78 78 78 78 78 78 0
1 78 78 78 79 79 79 79 79 79 79 79 79 79 79 0
1 79 79 79 79 79 79 79 79 79 79 79 79 79 79 0
1 79 79 79 79 79 79 79 79 79 79 80 80 80 80 0
1 80 80 80 80 80 80 80 80 80 80 80 80 80 80 0
1 80 80 80 80 80 80 80 80 80 80 80 80 80 80 0
1 80 80 80 80 80 80 80 80 80 80 80 80 81 81 0
1 81 81 81 81 81 81 81 81 81 81 81 81 81 81 0
1 81 81 81 81 81 81 81 81 81 81 81 81 81 81 0
1 81 81 81 81 81 81 81 81 81 81 81 81 81 81 0
1 81 81 82 82 82 82 82 82 82 82 82 82 82 82 0
1 82 82 82 82 82 82 82 82 82 82 82 82 82 82 0
1 82 82 82 82 82 82 82 82 82 83 83 83 83 83 0
1 83 83 83 83 83 83 83 83 83 83 83 83 83 83 0
1 83 83 83 83 83 83 83 83 83 83 83 83 83 83 0
1 83 83 83 83 83 83 84 84 84 84 84 84 84 84 0
1 84 84 84 84 84 84 84 84 84 84 84 84 84 84 0
1 84 84 84 84 85 85 85 85 85 85 85 85 85 85 0
1 85 85 85 85 85 85 85 85 85 85 85 85 85 85 0
1 85 85 85 85 85 85 85 85 85 85 85 86 86 86 0
1 86 86 86 86 86 86 86 86 86 86 86 86 86 86 0
1 86 86 86 86 86 86 86 86 86 86 86 86 86 86 0
1 86 86 86 87 87 87 87 87 87 87 87 87 87 87 0
1 87 87 87 87 87 87 87 87 87 87 87 87 87 87 0
1 87 87 87 87 87 87 87 87 87 87 87 87 87 87 0
1 88 88 88 88 88 88 88 88 88 88 88 88 88 88 0
1 88 88 88 88 88 88 88 88 88 88 88 88 88 88 0
1 88 88 88 88 88 88 88 88 88 88 88 88 88 88 0
1 88 88 88 88 88 88 88 88 89 89 89 89 89 89 0
1 89 89 89 89 89 89 89 89 89 89 89 89 89 89 0
1 89 89 89 89 89 89 89 89 89 89 89 89 89 89 0
1 89 89 90 90 90 90 90 90 90 90 90 90 90 90 0
1 90 90 90 90 90 90 90 90 90 90 90 90 90 90 0
1 90 90 90 90 90 90 90 90 90 90 90 90 90 90 0
1 91 91 91 91 91 91 91 91 91 91 91 91 91 91 0
1 91 91 91 91 91 91 91 91 91 91 91 91 91 91 0
1 91 91 91 91 91 91 91 91 91 91 91 91 91 91 0
1 91 91 92 92 92 92 92 92 92 92 92 92 92 92 0
1 92 92 92 92 92 92 92 92 92 92 92 92 92 92 0
1 92 92 92 92 92 92 93 93 93 93 93 93 93 93 0
1 93 93 93 93 93 93 93 93 93 93 93 93 93 93 0
1 93 93 93 93 93 93 93 93 93 94 94 94 94 94 0
1 94 94 94 94 94 94 94 94 94 94 94 94 94 94 0
1 94 94 94 94 94 94 94 94 94 94 94 94 94 94 0
1 94 95 95 95 95 95 95 95 95 95 95 95 95 95 0
1 95 95 95 95 95 95 95 95 95 95 95 95 95 95 0
1 95 95 95 95 95 95 95 95 95 95 95 96 96 96 0
1 96 96 96 96 96 96 96 96 96 96 96 96 96 96 0
1 96 96 96 96 96 96 96 96 96 96 97 97 97 97 0
1 97 97 97 97 97 97 97 97 97 97 97 97 97 97 0
1 97 97 97 97 97 97 97 97 97 97 97 97 97 97 0
1 97 97 97 97 97 97 97 97 97 97 97 97 97 98 0
1 98 98 98 98 98 98 98 98 98 98 98 98 98 98 0
1 98 98 98 98 98 98 98 98 98 98 98 98 98 98 0
1 98 98 98 98 98 98 98 99 99 99 99 99 99 99 0
1 99 99 99 99 99 99 99 99 99 99 99 99 99 99 0
1 99 99 99 99 99 99 99 99 99 99 99 99 99 99 0
1 99 99 99 100 100 100 100 100 100 100 100 100 100 100 0
1 100 100 100 100 100 100 100 100 100 100 100 100 100 100 0
1 100 100 100 100 100 100 100 100 100 0
1  0
1 16 26 153 198 312 336 359 424 448 482 503 547 666 680 0
1 771 779 780 786 863 986 1187 1278 1293 1342 1363 1369 1425 1469 0
1 1547 1594 1634 1750 1796 1843 1908 1953 1989 2024 2136 2139 2235 2255 0
1 2425 2506 2507 2522 2576 2621 2715 2773 2925 2980 2985 3011 3041 3138 0
1 3348 3377 3399 3433 3445 3457 3512 3717 3743 3807 3850 3893 3898 3973 0
1 3999 0
1  0
1 54 64 167 214 217 296 309 489 530 539 630 715 740 886 0
1 1095 1135 1140 1145 1248 1424 1444 1538 1546 1596 1597 1624 1655 1703 0
1 1887 1898 1921 1926 1940 1996 2131 2234 2294 2338 2537 2579 2634 2655 0
1 2706 2754 2756 2786 2891 2894 2909 2952 2955 3005 3010 3024 3074 3143 0
1 3242 3268 3283 3297 3332 3359 3430 3441 3443 3555 3562 3652 3706 3817 0
1 3850 3890 3911 0
1  0
1 7 60 61 88 90 108 112 156 204 280 285 295 297 460 0
1 479 686 692 698 704 754 762 838 852 911 1036 1048 1162 1215 0
1 1276 1363 1380 1385 1494 1497 1500 1618 1625 1628 1671 1710 1750 1813 0
1 1887 1914 2068 2078 2089 2106 2158 2318 2430 2435 2456 2533 2555 2565 0
1 2613 2620 2724 2838 2864 2872 2899 2983 2984 3028 3125 3140 3210 3396 0
1 3455 3470 3550 3590 3617 3705 3753 3786 3853 3876 3931 3938 3945 3979 0
1  0
1 31 125 166 179 324 399 425 451 462 545 643 754 888 1081 0
1 1119 1171 1215 1218 1270 1303 1306 1312 1430 1442 1617 1698 1721 1824 0
1 1976 1996 2104 2158 2176 2223 2226 2428 2438 2440 2660 2737 2752 2822 0
1 2900 2958 2989 2991 2998 3164 3180 3274 3338 3372 3483 3486 3607 3623 0
1 3665 3675 3736 3786 3886 3941 3969 3996 0
1  0
1 258 264 285 441 451 544 577 607 651 814 848 913 939 1018 0
1 1094 1129 1226 1229 1246 1267 1274 1296 1462 1524 1576 1608 1715 1720 0
1 1870 1924 1993 2059 2291 2293 2305 2311 2376 2404 2420 2429 2472 2546 0
1 2741 2772 2933 2939 2953 2968 2970 2989 3029 3030 3061 3068 3083 3099 0
1 3135 3471 3576 3632 3712 3773 3841 3855 3902 3969 3977 3989 0
1  0
1 149 334 349 379 386 441 501 515 578 620 701 728 808 818 0
1 909 944 1008 1045 1074 1092 1116 1139 1259 1362 1410 1452 1458 1465 0
1 1737 1746 1804 1831 1852 1875 1922 1923 2085 2105 2107 2127 2188 2203 0
1 2223 2266 2381 2393 2427 2429 2625 2629 2746 2833 3188 3231 3290 3311 0
1 3460 3463 3493 3577 3583 3599 3768 3908 3925 3932 3945 0
1  0
1 59 70 92 175 197 339 382 386 397 473 564 582 591 616 0
1 737 742 786 798 948 1031 1092 1149 1187 1216 1271 1279 1286 1353 0
1 1434 1487 1491 1535 1548 1565 1619 1781 1782 1884 1895 1940 2009 2148 0
1 2315 2432 2461 2522 2536 2545 2550 2577 2846 2921 2936 2964 2984 2992 0
1 3062 3087 3126 3127 3132 3163 3165 3356 3374 3411 3425 3455 3458 3505 0
1 3592 3593 3624 3679 3770 3773 3798 3810 3885 0
1  0
1 127 146 326 332 350 444 449 463 476 511 556 633 656 758 0
1 941 993 1038 1055 1171 1233 1334 1395 1496 1567 1599 1686 1713 1735 0
1 1915 2045 2079 2096 2101 2216 2316 2318 2387 2424 2467 2512 2572 2683 0
1 2766 2816 2923 3098 3100 3160 3228 3367 3448 3483 3574 3656 3704 3820 0
1 3855 3858 3866 3880 3922 3990 0
1  0
1 190 211 250 253 298 370 383 407 492 547 550 590 650 676 0
1 730 814 851 906 924 928 970 1016 1089 1117 1146 1151 1197 1234 0
1 1239 1330 1462 1474 1567 1626 1680 1784 1822 1854 1957 2054 2151 2178 0
1 2236 2306 2315 2399 2615 2676 2758 2773 2777 2814 2909 2947 2984 2998 0
1 3063 3114 3127 3182 3232 3427 3702 3705 3760 3879 3969 3985 0
1  0
1 109 110 125 142 268 284 285 367 408 422 425 502 522 629 0
1 740 763 773 825 844 864 911 943 960 975 1063 1116 1153 1201 0
1 1233 1297 1375 1405 1542 1604 1631 1891 1911 1934 2000 2060 2126 2146 0
1 2342 2344 2347 2364 2389 2409 2421 2545 2555 2657 2737 2922 2977 2993 0
1 3033 3035 3050 3096 3145 3167 3189 3204 3341 3348 3459 3508 3625 3667 0
1 3710 3787 3804 3941 0
1  0
1 182 258 365 367 415 422 454 523 579 602 619 684 701 781 0
1 820 822 875 887 893 903 937 1003 1037 1081 1086 1217 1342 1360 0
1 1459 1464 1467 1481 1501 1518 1647 1748 1817 1827 1832 2017 2046 2050 0
1 2082 2083 2112 2177 2282 2285 2291 2323 2363 2547 2570 2627 2635 2721 0
1 2761 2773 2774 2911 3053 3064 3079 3171 3218 3338 3399 3454 3458 3689 0
1 3723 3808 3894 3924 3960 0
1  0
1 70 96 115 124 135 236 245 297 338 353 398 420 506 608 0
1 664 722 744 823 880 934 964 1013 1029 1100 1135 1174 1180 1244 0
1 1412 1604 1609 1651 1684 1703 1787 1789 1802 1847 1867 1958 2008 2025 0
1 2125 2143 2175 2205 2217 2222 2230 2248 2261 2351 2384 2396 2399 2420 0
1 2551 2738 2777 2785 2903 3024 3043 3069 3077 3178 3215 3223 3232 3364 0
1 3454 3457 3482 3502 3518 3549 3603 3617 3627 3711 3735 3774 3779 3811 0
1 3839 3867 3869 3886 3898 3926 3989 0
1  0
1 126 134 162 167 375 420 447 455 541 576 641 656 781 785 0
1 824 830 853 890 917 966 1089 1212 1418 1522 1651 1717 1751 1820 0
1 1845 1929 1964 1972 2092 2188 2191 2278 2310 2423 2431 2438 2491 2565 0
1 2621 2681 2781 2791 2804 2853 2949 3052 3218 3265 3306 3313 3331 3368 0
1 3424 3448 3449 3483 3577 3587 3630 3666 3858 3895 3900 3926 3955 3975 0
1  0
1 25 42 57 68 113 132 158 243 259 374 399 415 535 661 0
1 690 751 877 891 904 963 1054 1070 1087 1107 1127 1210 1255 1346 0
1 1522 1561 1596 1650 1671 1675 1686 1703 1743 1817 1961 1979 1996 2000 0
1 2144 2194 2229 2250 2347 2354 2395 2444 2490 2747 2812 2830 2840 2857 0
1 2861 2925 2940 2959 2963 2994 3076 3089 3217 3228 3242 3247 3282 3296 0
1 3419 3493 3540 3546 3638 3649 3737 3813 3816 3838 3924 0
1  0
1 194 209 248 261 362 397 429 520 573 576 734 745 811 816 0
1 892 994 1018 1020 1076 1093 1097 1125 1127 1131 1226 1237 1242 1341 0
1 1413 1438 1488 1489 1533 1570 1578 1685 1693 1703 1812 1818 1879 1929 0
1 2086 2090 2111 2188 2195 2366 2450 2507 2587 2611 2625 2659 2780 2876 0
1 2970 2986 3047 3064 3146 3212 3228 3255 3270 3276 3355 3548 3633 3672 0
1 3717 3863 3975 0
1  0
1 128 139 161 206 239 337 348 396 419 522 618 698 712 776 0
1 1093 1111 1128 1202 1204 1222 1361 1438 1586 1592 1614 1656 1678 1693 0
1 1713 1767 1891 1973 1995 2014 2039 2083 2151 2174 2350 2360 2384 2428 0
1 2531 2580 2641 2675 2680 2719 2758 2763 2793 2807 2831 2834 2890 2901 0
1 3088 3192 3198 3241 3252 3259 3283 3307 3320 3321 3358 3373 3405 3497 0
1 3810 3866 3924 0
1  0
1 109 123 266 387 428 442 510 537 540 568 624 698 737 745 0
1 854 941 952 969 1094 1152 1273 1276 1420 1532 1584 1628 1638 1656 0
1 1688 1736 1739 1822 1825 1967 2093 2143 2167 2194 2213 2214 2299 2302 0
1 2428 2547 2578 2581 2586 2594 2626 2705 2723 2850 2929 2947 2970 2987 0
1 3343 3386 3444 3542 3581 3735 3808 3845 3977 3982 0
1  0
1 56 65 71 107 145 163 167 168 192 232 252 504 539 550 0
1 600 686 748 789 792 923 959 1166 1247 1274 1338 1349 1370 1397 0
1 1445 1446 1472 1548 1566 1619 1664 1672 1676 1698 1742 1805 1874 1891 0
1 2083 2097 2145 2230 2267 2308 2317 2318 2384 2394 2428 2432 2473 2513 0
1 2864 2959 3089 3132 3195 3232 3340 3346 3361 3376 3409 3416 3461 3500 0
1 3525 3540 3560 3634 3755 3795 3809 3842 3932 3934 0
1  0
1 127 168 208 296 300 353 414 431 435 484 538 623 628 690 0
1 758 776 838 865 949 958 995 998 1010 1027 1042 1148 1179 1277 0
1 1424 1440 1487 1585 1588 1728 1744 1772 1829 1879 1919 1955 1966 2013 0
1 2089 2097 2131 2159 2224 2278 2281 2398 2419 2435 2473 2501 2516 2586 0
1 2674 2680 2737 2763 2794 2812 2836 2979 3001 3015 3024 3078 3086 3149 0
1 3267 3269 3349 3365 3369 3395 3405 3419 3438 3449 3482 3554 3622 3775 0
1 3812 3909 3926 3991 0
1  0
1 18 33 129 200 201 271 329 338 403 444 536 563 616 688 0
1 714 721 739 755 812 874 891 938 985 1015 1051 1074 1118 1131 0
1 1307 1315 1413 1463 1479 1525 1607 1618 1675 1676 1687 1689 1707 1744 0
1 1864 1949 1981 2022 2046 2066 2096 2133 2192 2207 2471 2616 2629 2716 0
1 2869 2881 2918 2969 3158 3185 3191 3193 3217 3333 3414 3447 3507 3515 0
